56704
15, 31, 25, 27, 1, 33, 42, 11, 45, 52, 2, 14, 12, 9, 4, 18, 30, 47, 54, 34, 53, 23, 21, 48, 49, 26, 55, 28, 6, 3, 13, 43, 40, 51, 37, 7, 20, 50, 24, 35, 5, 41, 32, 8, 38, 44, 19, 17, 29, 10, 22, 16, 46, 39, 36
